147
0 105 67 136 68 103 55 99 144 6 
27 117 1 90 58 8 143 115 33 92 
49 34 7 97 30 23 19 47 26 16 
95 123 78 11 80 9 139 83 126 72 
71 133 44 39 140 101 98 82 15 14 
45 137 38 10 18 75 100 119 35 3 
104 76 56 32 141 142 145 116 17 120 
93 41 111 77 42 29 79 131 88 127 
91 132 125 50 20 124 53 135 128 61 
54 87 37 43 69 51 110 63 106 13 
73 130 112 62 24 84 52 129 65 48 
109 25 66 122 114 134 146 94 89 59 
64 118 107 2 138 86 60 31 96 12 
70 21 28 121 36 5 57 4 22 108 
46 81 74 102 40 85 113 
